# 100
643 766
616 531
91 329
494 700
12 983
394 911
356 659
790 450
473 587
600 297
376 109
317 577
967 107
744 415
167 429
284 756
25 563
213 975
164 18
667 834
848 331
506 245
746 760
25 99
985 607
681 294
434 142
949 796
708 445
796 840
969 400
577 911
171 74
766 376
620 677
498 136
901 204
385 451
58 215
391 800
988 349
226 802
29 415
880 445
565 744
739 305
906 186
442 719
843 336
165 558
904 399
664 182
999 425
795 292
366 396
804 669
676 990
732 682
97 459
392 881
721 413
512 86
117 857
543 936
58 320
879 673
600 596
807 739
266 513
566 926
982 265
581 128
516 510
124 996
419 453
582 969
19 59
746 474
799 43
424 502
13 77
539 214
538 325
78 545
639 878
891 446
217 262
896 345
758 217
416 609
949 453
903 218
865 626
460 967
22 288
277 406
785 764
310 317
990 553
289 931
